DATASET = "thpack6";
INSTANCE = "050";

WIDTH = 233;
HEIGHT = 220;
LENGTH = 587;

NO_OF_SHAPES = 15;
size = [|
  60,40,32 |
  98,75,55 |
  60,59,39 |
  81,56,40 |
  119,34,25 |
  107,61,42 |
  108,85,20 |
  97,66,45 |
  66,35,26 |
  69,32,20 |
  78,63,38 |
  95,77,47 |
  40,34,30 |
  88,42,20 |
  103,84,69 |
|];

verticality = [|
  1,1,1 |
  1,1,1 |
  1,1,1 |
  0,1,1 |
  0,1,1 |
  0,1,1 |
  0,0,1 |
  0,1,1 |
  0,1,1 |
  0,1,1 |
  0,1,1 |
  0,1,1 |
  1,1,1 |
  0,0,1 |
  1,1,1 |
|];

box_count = [
  7,
  9,
  9,
  17,
  10,
  10,
  5,
  5,
  6,
  12,
  13,
  15,
  7,
  10,
  10,
];
